NAME          BLANK   
ROWS
 N  OBJROW
 L  R0000000
COLUMNS
    C0000000  OBJROW     -937.         R0000000  158.        
    C0000001  OBJROW     -739.         R0000000  471.        
    C0000002  OBJROW     -584.         R0000000  507.        
    C0000003  OBJROW     -325.         R0000000  942.        
    C0000004  OBJROW     -485.         R0000000  777.        
    C0000005  OBJROW     -94.          R0000000  746.        
    C0000006  OBJROW     -773.         R0000000  745.        
    C0000007  OBJROW     -539.         R0000000  57.         
    C0000008  OBJROW     -259.         R0000000  375.        
    C0000009  OBJROW     -768.         R0000000  131.        
RHS
    RHS       R0000000  16539.      
BOUNDS
 BV BOUND     C0000000  1.          
 BV BOUND     C0000001  1.          
 BV BOUND     C0000002  1.          
 BV BOUND     C0000003  1.          
 BV BOUND     C0000004  1.          
 BV BOUND     C0000005  1.          
 BV BOUND     C0000006  1.          
 BV BOUND     C0000007  1.          
 BV BOUND     C0000008  1.          
 BV BOUND     C0000009  1.          
ENDATA
